100 20 100
56 69 35 89 13 29 8 26 16 24 35 21 67 67 61 54 79 19 84 62 60 79 90 22 49 10 57 11 99 44 77 55 13 12 96 79 41 4 5 58 81 92 31 48 60 93 3 39 64 39 1 24 18 43 98 19 53 55 31 52 8 59 65 72 55 96 65 12 2 75 93 94 7 41 6 52 96 46 16 35 99 92 6 43 90 25 96 98 8 1 50 16 12 67 40 20 64 6 32 66 
